n_res = 4;
rcap = [21, 14, 56, 45];
rtype = [1, 1, 2, 2];
n_tasks = 18;
modes = [ {1, 2, 3}, {4, 5, 6}, {7, 8, 9}, {10, 11, 12}, {13, 14, 15}, {16, 17, 18}, {19, 20, 21}, {22, 23, 24}, {25, 26, 27}, {28, 29, 30}, {31, 32, 33}, {34, 35, 36}, {37, 38, 39}, {40, 41, 42}, {43, 44, 45}, {46, 47, 48}, {49, 50, 51}, {52, 53, 54} ];
succ = [ {5, 9, 16}, {8, 10, 18}, {4, 9, 10}, {5, 6, 11}, {12, 13}, {7, 12, 13}, {8, 18}, {14, 16}, {17}, {11, 14}, {15}, {15}, {15, 18}, {17}, {17}, {}, {}, {} ];
n_opt = 54;
dur = [4, 9, 9, 5, 6, 6, 3, 4, 7, 1, 5, 5, 2, 4, 6, 4, 8, 9, 2, 6, 6, 5, 6, 10, 1, 3, 5, 1, 2, 6, 3, 5, 10, 2, 5, 9, 1, 2, 3, 1, 2, 2, 8, 9, 10, 1, 2, 3, 2, 3, 9, 1, 2, 5];
rreq = [|  0,  0,  6,  0,  0,  3,  0,  4,  1,  3,  0,  0,  0,  0,  0,  7,  0,  0,  0,  0,  0,  0,  0,  0,  0,  6,  4,  4,  3,  3,  0, 10,  0,  9,  8,  7,  9,  6,  5,  0,  7,  0,  0,  6,  4,  0,  0,  4,  9,  5,  0,  0,  5,  0
        |  6,  2,  0,  3,  3,  0,  4,  0,  0,  0,  6,  7,  4,  4,  2,  0,  4,  2,  6,  6,  6,  8,  5,  2,  7,  0,  0,  0,  0,  0,  9,  0,  8,  0,  0,  0,  0,  0,  0,  3,  0,  2,  6,  0,  0,  3,  2,  0,  0,  0,  8,  7,  0,  6
        |  4,  4,  4,  0,  2,  1,  6,  0,  5,  6,  0,  5,  9,  7,  4,  0,  0,  9,  0,  0,  4,  0,  0,  8,  0,  9,  5,  0,  8,  0,  0,  0,  1,  8,  8,  0,  2,  0,  0,  0,  0,  0,  2,  0,  2,  8,  0,  0,  7,  6,  6,  0,  5,  0
        |  0,  0,  0,  9,  0,  0,  0,  3,  0,  0,  2,  0,  0,  0,  0,  8,  4,  0,  4,  2,  0,  9,  8,  0,  2,  0,  0,  8,  0,  5,  2,  2,  0,  0,  0,  2,  0, 10, 10,  8,  7,  5,  0,  7,  0,  0,  6,  3,  0,  0,  0,  4,  0,  2 |];
